\ENCODING=ISO-8859-1
\Problem name: ilog.cplex

Minimize
 obj1: 98494 x1 + 91605 x2 + 100891 x3 + 92511 x4 + 103213 x5 + 104512 x6
       + 105054 x7 + 95554 x8 + 108230 x9 + 93821 x10 + 94492 x11 + 94218 x12
       + 92048 x13 + 98735 x14 + 93490 x15 + 99163 x16 + 106921 x17 + 95915 x18
       + 94343 x19 + 93356 x20 + 96496 x21 + 99310 x22 + 91310 x23 + 106337 x24
       + 109291 x25 + 94866 x26 + 99154 x27 + 95914 x28 + 91777 x29
       + 104496 x30 + 91395 x31 + 107200 x32 + 106419 x33 + 109861 x34
       + 95249 x35 + 107783 x36 + 107219 x37 + 93217 x38 + 97783 x39
       + 107432 x40 + 98156 x41 + 109968 x42 + 90950 x43 + 100853 x44
       + 98360 x45 + 95523 x46 + 91925 x47 + 102866 x48 + 101950 x49
       + 107720 x50 + 99576 x51 + 96760 x52 + 90169 x53 + 95250 x54
       + 107911 x55 + 108653 x56 + 108776 x57 + 102442 x58 + 92998 x59
       + 93359 x60 + 90558 x61 + 101887 x62 + 102133 x63 + 92732 x64
       + 103996 x65 + 90778 x66 + 108250 x67 + 99674 x68 + 90986 x69
       + 99076 x70 + 97750 x71 + 90491 x72 + 104671 x73 + 100681 x74
       + 94441 x75 + 93408 x76 + 107293 x77 + 104161 x78 + 108713 x79
       + 95173 x80 + 109152 x81 + 99102 x82 + 105855 x83 + 99354 x84
       + 104979 x85 + 98393 x86 + 103456 x87 + 108226 x88 + 97134 x89
       + 100513 x90 + 105124 x91 + 108662 x92 + 93328 x93 + 107488 x94
       + 103861 x95 + 94345 x96 + 105509 x97 + 91376 x98 + 105182 x99
       + 104117 x100 + 96083 x101 + 104991 x102 + 107395 x103 + 99456 x104
       + 97838 x105 + 101002 x106 + 94510 x107 + 102813 x108 + 94726 x109
       + 97671 x110 + 105782 x111 + 92946 x112 + 92087 x113 + 109156 x114
       + 105198 x115 + 103421 x116 + 106949 x117 + 103654 x118 + 104039 x119
       + 96072 x120 + 102492 x121 + 107882 x122 + 98987 x123 + 108702 x124
       + 103529 x125 + 90219 x126 + 106026 x127 + 100811 x128 + 109264 x129
       + 106675 x130 + 93358 x131 + 99068 x132 + 90109 x133 + 104109 x134
       + 108773 x135 + 101608 x136 + 93419 x137 + 95993 x138 + 100644 x139
       + 100291 x140 + 99417 x141 + 94574 x142 + 91899 x143 + 102649 x144
       + 105243 x145 + 97012 x146 + 95020 x147 + 102145 x148 + 96588 x149
       + 102730 x150 + 92440 x151 + 96794 x152 + 92639 x153 + 107492 x154
       + 108318 x155 + 92293 x156 + 91962 x157 + 108642 x158 + 104881 x159
       + 92554 x160 + 104457 x161 + 105511 x162 + 109328 x163 + 97892 x164
       + 107678 x165 + 109161 x166 + 95773 x167 + 99110 x168 + 94579 x169
       + 106425 x170 + 90776 x171 + 94349 x172 + 104121 x173 + 94659 x174
       + 100724 x175 + 104771 x176 + 106228 x177 + 95641 x178 + 94643 x179
       + 105071 x180 + 95218 x181 + 100938 x182 + 104787 x183 + 91565 x184
       + 101030 x185 + 90363 x186 + 107998 x187 + 109850 x188 + 102844 x189
       + 101653 x190 + 103840 x191 + 94986 x192 + 93967 x193 + 102415 x194
       + 95925 x195 + 95967 x196 + 103537 x197 + 104400 x198 + 106811 x199
       + 95789 x200 + 102075 x201 + 92907 x202 + 106006 x203 + 91959 x204
       + 102214 x205 + 97987 x206 + 93539 x207 + 108099 x208 + 91976 x209
       + 102234 x210 + 104117 x211 + 101366 x212 + 93449 x213 + 96186 x214
       + 95207 x215 + 101958 x216 + 105828 x217 + 104286 x218 + 101292 x219
       + 98209 x220 + 108521 x221 + 91849 x222 + 96121 x223 + 103586 x224
       + 107392 x225 + 106639 x226 + 104920 x227 + 90373 x228 + 105198 x229
       + 107417 x230 + 109358 x231 + 108917 x232 + 105877 x233 + 106238 x234
       + 109478 x235 + 90981 x236 + 101607 x237 + 101261 x238 + 108847 x239
       + 101129 x240 + 90993 x241 + 100495 x242 + 94324 x243 + 105465 x244
       + 107856 x245 + 100899 x246 + 94927 x247 + 101393 x248 + 91215 x249
       + 95227 x250 + 106509 x251 + 99727 x252 + 98790 x253 + 98280 x254
       + 96792 x255 + 99580 x256 + 96926 x257 + 93833 x258 + 97269 x259
       + 108647 x260 + 109392 x261 + 97710 x262 + 102491 x263 + 109724 x264
       + 103329 x265 + 102455 x266 + 109842 x267 + 109348 x268 + 101379 x269
       + 103790 x270 + 109880 x271 + 101432 x272 + 105026 x273 + 94494 x274
       + 103608 x275 + 106999 x276 + 95736 x277 + 107513 x278 + 104921 x279
       + 100120 x280 + 107717 x281 + 96804 x282 + 103989 x283 + 99655 x284
       + 98911 x285 + 101783 x286 + 100487 x287 + 96591 x288 + 105336 x289
       + 109264 x290 + 104374 x291 + 97590 x292 + 107934 x293 + 105354 x294
       + 106262 x295 + 96753 x296 + 90818 x297 + 99035 x298 + 99506 x299
       + 99680 x300 + 96573 x301 + 93702 x302 + 95856 x303 + 94788 x304
       + 94432 x305 + 98185 x306 + 102776 x307 + 109147 x308 + 92323 x309
       + 102774 x310 + 99685 x311 + 100961 x312 + 98232 x313 + 106144 x314
       + 108105 x315 + 108561 x316 + 101222 x317 + 96959 x318 + 97030 x319
       + 108606 x320 + 108386 x321 + 97241 x322 + 103681 x323 + 101661 x324
       + 92525 x325 + 92653 x326 + 107286 x327 + 101932 x328 + 93535 x329
       + 109063 x330 + 98849 x331 + 96585 x332 + 94156 x333 + 100707 x334
       + 105415 x335 + 96283 x336 + 109030 x337 + 106883 x338 + 93393 x339
       + 90524 x340 + 104963 x341 + 91264 x342 + 92291 x343 + 108844 x344
       + 109821 x345 + 100810 x346 + 107529 x347 + 92122 x348 + 107655 x349
       + 109653 x350 + 109040 x351 + 96973 x352 + 98478 x353 + 107474 x354
       + 90924 x355 + 90615 x356 + 102524 x357 + 91540 x358 + 96706 x359
       + 103631 x360 + 93660 x361 + 107009 x362 + 90540 x363 + 107565 x364
       + 94355 x365 + 107154 x366 + 90595 x367 + 94442 x368 + 100813 x369
       + 91196 x370 + 96501 x371 + 99422 x372 + 95225 x373 + 100530 x374
       + 100591 x375 + 100429 x376 + 104606 x377 + 104319 x378 + 107647 x379
       + 109213 x380 + 106286 x381 + 101513 x382 + 106749 x383 + 109945 x384
       + 96172 x385 + 92348 x386 + 104800 x387 + 107248 x388 + 109872 x389
       + 100128 x390 + 91425 x391 + 109460 x392 + 97379 x393 + 91746 x394
       + 100874 x395 + 98411 x396 + 98285 x397 + 93723 x398 + 98158 x399
       + 93139 x400 + 106421 x401 + 109456 x402 + 103843 x403 + 101656 x404
       + 90285 x405 + 92916 x406 + 104769 x407 + 92297 x408 + 108821 x409
       + 104220 x410 + 96400 x411 + 104125 x412 + 90842 x413 + 103295 x414
       + 106622 x415 + 94510 x416 + 90797 x417 + 109287 x418 + 100486 x419
       + 91214 x420 + 96211 x421 + 96945 x422 + 101598 x423 + 99921 x424
       + 98910 x425 + 90554 x426 + 100667 x427 + 106469 x428 + 97612 x429
       + 99198 x430 + 107533 x431 + 99312 x432 + 99740 x433 + 98228 x434
       + 95696 x435 + 103467 x436 + 93755 x437 + 109002 x438 + 100276 x439
       + 102466 x440 + 98651 x441 + 95096 x442 + 102745 x443 + 92578 x444
       + 100550 x445 + 109674 x446 + 108903 x447 + 98489 x448 + 100146 x449
       + 109400 x450 + 98713 x451 + 90445 x452 + 99601 x453 + 90887 x454
       + 104252 x455 + 108793 x456 + 93016 x457 + 102011 x458 + 90387 x459
       + 93475 x460 + 90668 x461 + 92239 x462 + 91660 x463 + 93201 x464
       + 103988 x465 + 93705 x466 + 98451 x467 + 91882 x468 + 105581 x469
       + 107861 x470 + 105647 x471 + 98358 x472 + 96610 x473 + 91336 x474
       + 97856 x475 + 99520 x476 + 102441 x477 + 109011 x478 + 106619 x479
       + 96658 x480 + 90191 x481 + 103929 x482 + 106612 x483 + 104675 x484
       + 108870 x485 + 90827 x486 + 92052 x487 + 104209 x488 + 96158 x489
       + 108565 x490 + 100686 x491 + 100592 x492 + 108690 x493 + 108670 x494
       + 103238 x495 + 91333 x496 + 109529 x497 + 108725 x498 + 108636 x499
       + 99066 x500 + 92412 x501 + 106413 x502 + 102363 x503 + 96653 x504
       + 92258 x505 + 94262 x506 + 109334 x507 + 94292 x508 + 101910 x509
       + 91661 x510 + 101992 x511 + 105059 x512 + 105424 x513 + 105549 x514
       + 104954 x515 + 92949 x516 + 94157 x517 + 96725 x518 + 93801 x519
       + 95843 x520 + 93526 x521 + 104776 x522 + 107526 x523 + 104687 x524
       + 95462 x525 + 91413 x526 + 91648 x527 + 109775 x528 + 104475 x529
       + 99329 x530 + 102146 x531 + 95175 x532 + 103646 x533 + 91701 x534
       + 109163 x535 + 93145 x536 + 90996 x537 + 96076 x538 + 103792 x539
       + 101804 x540 + 101390 x541 + 104137 x542 + 90396 x543 + 109725 x544
       + 97107 x545 + 108653 x546 + 102525 x547 + 104275 x548 + 109840 x549
       + 94600 x550 + 98766 x551 + 94397 x552 + 109992 x553 + 108311 x554
       + 97592 x555 + 93481 x556 + 104194 x557 + 102578 x558 + 108747 x559
       + 98835 x560 + 99853 x561 + 101628 x562 + 106998 x563 + 103582 x564
       + 108289 x565 + 101820 x566 + 105191 x567 + 91458 x568 + 103636 x569
       + 108355 x570 + 95985 x571 + 100497 x572 + 91742 x573 + 108615 x574
       + 96499 x575 + 102269 x576 + 100958 x577 + 108711 x578 + 105616 x579
       + 99569 x580 + 105047 x581 + 91406 x582 + 109755 x583 + 97381 x584
       + 107322 x585 + 90760 x586 + 109723 x587 + 109432 x588 + 94702 x589
       + 101729 x590 + 108564 x591 + 105830 x592 + 90548 x593 + 91337 x594
       + 98346 x595 + 106007 x596 + 95938 x597 + 92187 x598 + 92432 x599
       - 141738 x600 + 435274 x601 + 375631 x602 + 420678 x603 + 378600 x604
       + 372235 x605 + 389640 x606 + 375659 x607 + 361917 x608 + 411504 x609
       + 365400 x610 + 369933 x611 + 429039 x612 + 427297 x613 + 365247 x614
       + 387068 x615 + 405650 x616 + 374516 x617 + 417352 x618 + 395631 x619
       + 419367 x620 + 431217 x621 + 383757 x622 + 365776 x623 + 363738 x624
       + 360125 x625 + 393358 x626 + 403232 x627 + 436143 x628 + 402346 x629
       + 402773 x630 + 415152 x631 + 403509 x632 + 360892 x633 + 396856 x634
       + 400454 x635 + 382345 x636 + 403559 x637 + 396952 x638 + 383001 x639
       + 439641 x640 + 434187 x641 + 368814 x642 + 379185 x643 + 388814 x644
       + 408250 x645 + 393433 x646 + 412148 x647 + 369887 x648 + 423213 x649
       + 362860 x650 + 373109 x651 + 365743 x652 + 396006 x653 + 389419 x654
       + 365958 x655 + 396309 x656 + 409450 x657 + 390551 x658 + 374470 x659
       + 795730 x660
Subject To
 c1:   x3 - x6 - x8 - x24 - x27 + x30 - x31 - x35 - x38 + x46 + x51 - x58  = 0
 c2:   x63 - x66 - x68 - x84 - x87 + x90 - x91 - x95 - x98 + x106 + x111 - x118
        = 1
 c3:   x123 - x126 - x128 - x144 - x147 + x150 - x151 - x155 - x158 + x166
       + x171 - x178  = -1
 c4:   x183 - x186 - x188 - x204 - x207 + x210 - x211 - x215 - x218 + x226
       + x231 - x238  = 0
 c5:   x243 - x246 - x248 - x264 - x267 + x270 - x271 - x275 - x278 + x286
       + x291 - x298  = -1
 c6:   x303 - x306 - x308 - x324 - x327 + x330 - x331 - x335 - x338 + x346
       + x351 - x358  = -1
 c7:   x363 - x366 - x368 - x384 - x387 + x390 - x391 - x395 - x398 + x406
       + x411 - x418  = 0
 c8:   x423 - x426 - x428 - x444 - x447 + x450 - x451 - x455 - x458 + x466
       + x471 - x478  = 0
 c9:   x483 - x486 - x488 - x504 - x507 + x510 - x511 - x515 - x518 + x526
       + x531 - x538  = 0
 c10:  x543 - x546 - x548 - x564 - x567 + x570 - x571 - x575 - x578 + x586
       + x591 - x598  = -1
 c11:  x5 + x6 - x9 + x11 - x16 - x20 - x29 + x41 + x45 - x46 - x48 + x52  = 0
 c12:  x65 + x66 - x69 + x71 - x76 - x80 - x89 + x101 + x105 - x106 - x108
       + x112  = 0
 c13:  x125 + x126 - x129 + x131 - x136 - x140 - x149 + x161 + x165 - x166
       - x168 + x172  = 0
 c14:  x185 + x186 - x189 + x191 - x196 - x200 - x209 + x221 + x225 - x226
       - x228 + x232  = 0
 c15:  x245 + x246 - x249 + x251 - x256 - x260 - x269 + x281 + x285 - x286
       - x288 + x292  = 0
 c16:  x305 + x306 - x309 + x311 - x316 - x320 - x329 + x341 + x345 - x346
       - x348 + x352  = 0
 c17:  x365 + x366 - x369 + x371 - x376 - x380 - x389 + x401 + x405 - x406
       - x408 + x412  = 0
 c18:  x425 + x426 - x429 + x431 - x436 - x440 - x449 + x461 + x465 - x466
       - x468 + x472  = 0
 c19:  x485 + x486 - x489 + x491 - x496 - x500 - x509 + x521 + x525 - x526
       - x528 + x532  = 1
 c20:  x545 + x546 - x549 + x551 - x556 - x560 - x569 + x581 + x585 - x586
       - x588 + x592  = 0
 c21:  - x5 - x14 + x16 + x18 + x19 - x22 + x25 + x39 - x50 - x51 - x55 + x58
        = 0
 c22:  - x65 - x74 + x76 + x78 + x79 - x82 + x85 + x99 - x110 - x111 - x115
       + x118  = 0
 c23:  - x125 - x134 + x136 + x138 + x139 - x142 + x145 + x159 - x170 - x171
       - x175 + x178  = 0
 c24:  - x185 - x194 + x196 + x198 + x199 - x202 + x205 + x219 - x230 - x231
       - x235 + x238  = 0
 c25:  - x245 - x254 + x256 + x258 + x259 - x262 + x265 + x279 - x290 - x291
       - x295 + x298  = 0
 c26:  - x305 - x314 + x316 + x318 + x319 - x322 + x325 + x339 - x350 - x351
       - x355 + x358  = 0
 c27:  - x365 - x374 + x376 + x378 + x379 - x382 + x385 + x399 - x410 - x411
       - x415 + x418  = -1
 c28:  - x425 - x434 + x436 + x438 + x439 - x442 + x445 + x459 - x470 - x471
       - x475 + x478  = 0
 c29:  - x485 - x494 + x496 + x498 + x499 - x502 + x505 + x519 - x530 - x531
       - x535 + x538  = 0
 c30:  - x545 - x554 + x556 + x558 + x559 - x562 + x565 + x579 - x590 - x591
       - x595 + x598  = 0
 c31:  x13 + x23 - x25 - x33 + x40 - x42 + x50 - x53 + x54 + x60  = 0
 c32:  x73 + x83 - x85 - x93 + x100 - x102 + x110 - x113 + x114 + x120  = 0
 c33:  x133 + x143 - x145 - x153 + x160 - x162 + x170 - x173 + x174 + x180  = 0
 c34:  x193 + x203 - x205 - x213 + x220 - x222 + x230 - x233 + x234 + x240
        = -1
 c35:  x253 + x263 - x265 - x273 + x280 - x282 + x290 - x293 + x294 + x300  = 0
 c36:  x313 + x323 - x325 - x333 + x340 - x342 + x350 - x353 + x354 + x360  = 0
 c37:  x373 + x383 - x385 - x393 + x400 - x402 + x410 - x413 + x414 + x420  = 0
 c38:  x433 + x443 - x445 - x453 + x460 - x462 + x470 - x473 + x474 + x480  = 0
 c39:  x493 + x503 - x505 - x513 + x520 - x522 + x530 - x533 + x534 + x540
        = -1
 c40:  x553 + x563 - x565 - x573 + x580 - x582 + x590 - x593 + x594 + x600  = 0
 c41:  - x7 - x10 - x11 + x20 - x23 + x24 + x26 - x30 - x36 - x39 + x44 + x49
       + x53 + x55 + x56 + x59  = -1
 c42:  - x67 - x70 - x71 + x80 - x83 + x84 + x86 - x90 - x96 - x99 + x104
       + x109 + x113 + x115 + x116 + x119  = 0
 c43:  - x127 - x130 - x131 + x140 - x143 + x144 + x146 - x150 - x156 - x159
       + x164 + x169 + x173 + x175 + x176 + x179  = 0
 c44:  - x187 - x190 - x191 + x200 - x203 + x204 + x206 - x210 - x216 - x219
       + x224 + x229 + x233 + x235 + x236 + x239  = 0
 c45:  - x247 - x250 - x251 + x260 - x263 + x264 + x266 - x270 - x276 - x279
       + x284 + x289 + x293 + x295 + x296 + x299  = 0
 c46:  - x307 - x310 - x311 + x320 - x323 + x324 + x326 - x330 - x336 - x339
       + x344 + x349 + x353 + x355 + x356 + x359  = 1
 c47:  - x367 - x370 - x371 + x380 - x383 + x384 + x386 - x390 - x396 - x399
       + x404 + x409 + x413 + x415 + x416 + x419  = 0
 c48:  - x427 - x430 - x431 + x440 - x443 + x444 + x446 - x450 - x456 - x459
       + x464 + x469 + x473 + x475 + x476 + x479  = 0
 c49:  - x487 - x490 - x491 + x500 - x503 + x504 + x506 - x510 - x516 - x519
       + x524 + x529 + x533 + x535 + x536 + x539  = 0
 c50:  - x547 - x550 - x551 + x560 - x563 + x564 + x566 - x570 - x576 - x579
       + x584 + x589 + x593 + x595 + x596 + x599  = 0
 c51:  - x4 + x8 + x21 + x34 - x49 - x52 - x57  = 0
 c52:  - x64 + x68 + x81 + x94 - x109 - x112 - x117  = -1
 c53:  - x124 + x128 + x141 + x154 - x169 - x172 - x177  = 0
 c54:  - x184 + x188 + x201 + x214 - x229 - x232 - x237  = 0
 c55:  - x244 + x248 + x261 + x274 - x289 - x292 - x297  = 0
 c56:  - x304 + x308 + x321 + x334 - x349 - x352 - x357  = 0
 c57:  - x364 + x368 + x381 + x394 - x409 - x412 - x417  = 0
 c58:  - x424 + x428 + x441 + x454 - x469 - x472 - x477  = -1
 c59:  - x484 + x488 + x501 + x514 - x529 - x532 - x537  = 0
 c60:  - x544 + x548 + x561 + x574 - x589 - x592 - x597  = 0
 c61:  x1 - x3 + x4 - x12 - x13 - x17 - x19 + x22 + x28 + x38 + x42 - x44 - x45
       + x48  = 0
 c62:  x61 - x63 + x64 - x72 - x73 - x77 - x79 + x82 + x88 + x98 + x102 - x104
       - x105 + x108  = 0
 c63:  x121 - x123 + x124 - x132 - x133 - x137 - x139 + x142 + x148 + x158
       + x162 - x164 - x165 + x168  = 1
 c64:  x181 - x183 + x184 - x192 - x193 - x197 - x199 + x202 + x208 + x218
       + x222 - x224 - x225 + x228  = 0
 c65:  x241 - x243 + x244 - x252 - x253 - x257 - x259 + x262 + x268 + x278
       + x282 - x284 - x285 + x288  = 1
 c66:  x301 - x303 + x304 - x312 - x313 - x317 - x319 + x322 + x328 + x338
       + x342 - x344 - x345 + x348  = 0
 c67:  x361 - x363 + x364 - x372 - x373 - x377 - x379 + x382 + x388 + x398
       + x402 - x404 - x405 + x408  = 0
 c68:  x421 - x423 + x424 - x432 - x433 - x437 - x439 + x442 + x448 + x458
       + x462 - x464 - x465 + x468  = 0
 c69:  x481 - x483 + x484 - x492 - x493 - x497 - x499 + x502 + x508 + x518
       + x522 - x524 - x525 + x528  = 0
 c70:  x541 - x543 + x544 - x552 - x553 - x557 - x559 + x562 + x568 + x578
       + x582 - x584 - x585 + x588  = 0
 c71:  x7 - x26 + x31 + x32 - x34 - x37 + x43 - x47 + x57 - x60  = 0
 c72:  x67 - x86 + x91 + x92 - x94 - x97 + x103 - x107 + x117 - x120  = 0
 c73:  x127 - x146 + x151 + x152 - x154 - x157 + x163 - x167 + x177 - x180  = 0
 c74:  x187 - x206 + x211 + x212 - x214 - x217 + x223 - x227 + x237 - x240  = 0
 c75:  x247 - x266 + x271 + x272 - x274 - x277 + x283 - x287 + x297 - x300  = 0
 c76:  x307 - x326 + x331 + x332 - x334 - x337 + x343 - x347 + x357 - x360  = 0
 c77:  x367 - x386 + x391 + x392 - x394 - x397 + x403 - x407 + x417 - x420  = 0
 c78:  x427 - x446 + x451 + x452 - x454 - x457 + x463 - x467 + x477 - x480  = 1
 c79:  x487 - x506 + x511 + x512 - x514 - x517 + x523 - x527 + x537 - x540  = 0
 c80:  x547 - x566 + x571 + x572 - x574 - x577 + x583 - x587 + x597 - x600  = 1
 c81:  - x1 - x2 + x9 + x15 + x17 - x21 + x27 - x32 + x36 + x37 - x40 - x56
        = 1
 c82:  - x61 - x62 + x69 + x75 + x77 - x81 + x87 - x92 + x96 + x97 - x100
       - x116  = 0
 c83:  - x121 - x122 + x129 + x135 + x137 - x141 + x147 - x152 + x156 + x157
       - x160 - x176  = 0
 c84:  - x181 - x182 + x189 + x195 + x197 - x201 + x207 - x212 + x216 + x217
       - x220 - x236  = 0
 c85:  - x241 - x242 + x249 + x255 + x257 - x261 + x267 - x272 + x276 + x277
       - x280 - x296  = 0
 c86:  - x301 - x302 + x309 + x315 + x317 - x321 + x327 - x332 + x336 + x337
       - x340 - x356  = 0
 c87:  - x361 - x362 + x369 + x375 + x377 - x381 + x387 - x392 + x396 + x397
       - x400 - x416  = 1
 c88:  - x421 - x422 + x429 + x435 + x437 - x441 + x447 - x452 + x456 + x457
       - x460 - x476  = 0
 c89:  - x481 - x482 + x489 + x495 + x497 - x501 + x507 - x512 + x516 + x517
       - x520 - x536  = 0
 c90:  - x541 - x542 + x549 + x555 + x557 - x561 + x567 - x572 + x576 + x577
       - x580 - x596  = 0
 c91:  x2 + x10 + x12 + x14 - x15 - x18 - x28 + x29 + x33 + x35 - x41 - x43
       + x47 - x54 - x59  = 0
 c92:  x62 + x70 + x72 + x74 - x75 - x78 - x88 + x89 + x93 + x95 - x101 - x103
       + x107 - x114 - x119  = 0
 c93:  x122 + x130 + x132 + x134 - x135 - x138 - x148 + x149 + x153 + x155
       - x161 - x163 + x167 - x174 - x179  = 0
 c94:  x182 + x190 + x192 + x194 - x195 - x198 - x208 + x209 + x213 + x215
       - x221 - x223 + x227 - x234 - x239  = 1
 c95:  x242 + x250 + x252 + x254 - x255 - x258 - x268 + x269 + x273 + x275
       - x281 - x283 + x287 - x294 - x299  = 0
 c96:  x302 + x310 + x312 + x314 - x315 - x318 - x328 + x329 + x333 + x335
       - x341 - x343 + x347 - x354 - x359  = 0
 c97:  x362 + x370 + x372 + x374 - x375 - x378 - x388 + x389 + x393 + x395
       - x401 - x403 + x407 - x414 - x419  = 0
 c98:  x422 + x430 + x432 + x434 - x435 - x438 - x448 + x449 + x453 + x455
       - x461 - x463 + x467 - x474 - x479  = 0
 c99:  x482 + x490 + x492 + x494 - x495 - x498 - x508 + x509 + x513 + x515
       - x521 - x523 + x527 - x534 - x539  = 0
 c100: x542 + x550 + x552 + x554 - x555 - x558 - x568 + x569 + x573 + x575
       - x581 - x583 + x587 - x594 - x599  = 0
 c101: 4 x1 + 4 x61 + 4 x121 + 4 x181 + 4 x241 + 4 x301 + 4 x361 + 4 x421
       + 4 x481 + 4 x541 - 5 x601 <= 0
 c102: 4 x2 + 4 x62 + 4 x122 + 4 x182 + 4 x242 + 4 x302 + 4 x362 + 4 x422
       + 4 x482 + 4 x542 - 5 x602 <= 0
 c103: 4 x3 + 4 x63 + 4 x123 + 4 x183 + 4 x243 + 4 x303 + 4 x363 + 4 x423
       + 4 x483 + 4 x543 - 5 x603 <= 0
 c104: 4 x4 + 4 x64 + 4 x124 + 4 x184 + 4 x244 + 4 x304 + 4 x364 + 4 x424
       + 4 x484 + 4 x544 - 5 x604 <= 0
 c105: 4 x5 + 4 x65 + 4 x125 + 4 x185 + 4 x245 + 4 x305 + 4 x365 + 4 x425
       + 4 x485 + 4 x545 - 5 x605 <= 0
 c106: 4 x6 + 4 x66 + 4 x126 + 4 x186 + 4 x246 + 4 x306 + 4 x366 + 4 x426
       + 4 x486 + 4 x546 - 5 x606 <= 0
 c107: 4 x7 + 4 x67 + 4 x127 + 4 x187 + 4 x247 + 4 x307 + 4 x367 + 4 x427
       + 4 x487 + 4 x547 - 5 x607 <= 0
 c108: 4 x8 + 4 x68 + 4 x128 + 4 x188 + 4 x248 + 4 x308 + 4 x368 + 4 x428
       + 4 x488 + 4 x548 - 5 x608 <= 0
 c109: 4 x9 + 4 x69 + 4 x129 + 4 x189 + 4 x249 + 4 x309 + 4 x369 + 4 x429
       + 4 x489 + 4 x549 - 5 x609 <= 0
 c110: 4 x10 + 4 x70 + 4 x130 + 4 x190 + 4 x250 + 4 x310 + 4 x370 + 4 x430
       + 4 x490 + 4 x550 - 5 x610 <= 0
 c111: 4 x11 + 4 x71 + 4 x131 + 4 x191 + 4 x251 + 4 x311 + 4 x371 + 4 x431
       + 4 x491 + 4 x551 - 5 x611 <= 0
 c112: 4 x12 + 4 x72 + 4 x132 + 4 x192 + 4 x252 + 4 x312 + 4 x372 + 4 x432
       + 4 x492 + 4 x552 - 5 x612 <= 0
 c113: 4 x13 + 4 x73 + 4 x133 + 4 x193 + 4 x253 + 4 x313 + 4 x373 + 4 x433
       + 4 x493 + 4 x553 - 5 x613 <= 0
 c114: 4 x14 + 4 x74 + 4 x134 + 4 x194 + 4 x254 + 4 x314 + 4 x374 + 4 x434
       + 4 x494 + 4 x554 - 5 x614 <= 0
 c115: 4 x15 + 4 x75 + 4 x135 + 4 x195 + 4 x255 + 4 x315 + 4 x375 + 4 x435
       + 4 x495 + 4 x555 - 5 x615 <= 0
 c116: 4 x16 + 4 x76 + 4 x136 + 4 x196 + 4 x256 + 4 x316 + 4 x376 + 4 x436
       + 4 x496 + 4 x556 - 5 x616 <= 0
 c117: 4 x17 + 4 x77 + 4 x137 + 4 x197 + 4 x257 + 4 x317 + 4 x377 + 4 x437
       + 4 x497 + 4 x557 - 5 x617 <= 0
 c118: 4 x18 + 4 x78 + 4 x138 + 4 x198 + 4 x258 + 4 x318 + 4 x378 + 4 x438
       + 4 x498 + 4 x558 - 5 x618 <= 0
 c119: 4 x19 + 4 x79 + 4 x139 + 4 x199 + 4 x259 + 4 x319 + 4 x379 + 4 x439
       + 4 x499 + 4 x559 - 5 x619 <= 0
 c120: 4 x20 + 4 x80 + 4 x140 + 4 x200 + 4 x260 + 4 x320 + 4 x380 + 4 x440
       + 4 x500 + 4 x560 - 5 x620 <= 0
 c121: 4 x21 + 4 x81 + 4 x141 + 4 x201 + 4 x261 + 4 x321 + 4 x381 + 4 x441
       + 4 x501 + 4 x561 - 5 x621 <= 0
 c122: 4 x22 + 4 x82 + 4 x142 + 4 x202 + 4 x262 + 4 x322 + 4 x382 + 4 x442
       + 4 x502 + 4 x562 - 5 x622 <= 0
 c123: 4 x23 + 4 x83 + 4 x143 + 4 x203 + 4 x263 + 4 x323 + 4 x383 + 4 x443
       + 4 x503 + 4 x563 - 5 x623 <= 0
 c124: 4 x24 + 4 x84 + 4 x144 + 4 x204 + 4 x264 + 4 x324 + 4 x384 + 4 x444
       + 4 x504 + 4 x564 - 5 x624 <= 0
 c125: 4 x25 + 4 x85 + 4 x145 + 4 x205 + 4 x265 + 4 x325 + 4 x385 + 4 x445
       + 4 x505 + 4 x565 - 5 x625 <= 0
 c126: 4 x26 + 4 x86 + 4 x146 + 4 x206 + 4 x266 + 4 x326 + 4 x386 + 4 x446
       + 4 x506 + 4 x566 - 5 x626 <= 0
 c127: 4 x27 + 4 x87 + 4 x147 + 4 x207 + 4 x267 + 4 x327 + 4 x387 + 4 x447
       + 4 x507 + 4 x567 - 5 x627 <= 0
 c128: 4 x28 + 4 x88 + 4 x148 + 4 x208 + 4 x268 + 4 x328 + 4 x388 + 4 x448
       + 4 x508 + 4 x568 - 5 x628 <= 0
 c129: 4 x29 + 4 x89 + 4 x149 + 4 x209 + 4 x269 + 4 x329 + 4 x389 + 4 x449
       + 4 x509 + 4 x569 - 5 x629 <= 0
 c130: 4 x30 + 4 x90 + 4 x150 + 4 x210 + 4 x270 + 4 x330 + 4 x390 + 4 x450
       + 4 x510 + 4 x570 - 5 x630 <= 0
 c131: 4 x31 + 4 x91 + 4 x151 + 4 x211 + 4 x271 + 4 x331 + 4 x391 + 4 x451
       + 4 x511 + 4 x571 - 5 x631 <= 0
 c132: 4 x32 + 4 x92 + 4 x152 + 4 x212 + 4 x272 + 4 x332 + 4 x392 + 4 x452
       + 4 x512 + 4 x572 - 5 x632 <= 0
 c133: 4 x33 + 4 x93 + 4 x153 + 4 x213 + 4 x273 + 4 x333 + 4 x393 + 4 x453
       + 4 x513 + 4 x573 - 5 x633 <= 0
 c134: 4 x34 + 4 x94 + 4 x154 + 4 x214 + 4 x274 + 4 x334 + 4 x394 + 4 x454
       + 4 x514 + 4 x574 - 5 x634 <= 0
 c135: 4 x35 + 4 x95 + 4 x155 + 4 x215 + 4 x275 + 4 x335 + 4 x395 + 4 x455
       + 4 x515 + 4 x575 - 5 x635 <= 0
 c136: 4 x36 + 4 x96 + 4 x156 + 4 x216 + 4 x276 + 4 x336 + 4 x396 + 4 x456
       + 4 x516 + 4 x576 - 5 x636 <= 0
 c137: 4 x37 + 4 x97 + 4 x157 + 4 x217 + 4 x277 + 4 x337 + 4 x397 + 4 x457
       + 4 x517 + 4 x577 - 5 x637 <= 0
 c138: 4 x38 + 4 x98 + 4 x158 + 4 x218 + 4 x278 + 4 x338 + 4 x398 + 4 x458
       + 4 x518 + 4 x578 - 5 x638 <= 0
 c139: 4 x39 + 4 x99 + 4 x159 + 4 x219 + 4 x279 + 4 x339 + 4 x399 + 4 x459
       + 4 x519 + 4 x579 - 5 x639 <= 0
 c140: 4 x40 + 4 x100 + 4 x160 + 4 x220 + 4 x280 + 4 x340 + 4 x400 + 4 x460
       + 4 x520 + 4 x580 - 5 x640 <= 0
 c141: 4 x41 + 4 x101 + 4 x161 + 4 x221 + 4 x281 + 4 x341 + 4 x401 + 4 x461
       + 4 x521 + 4 x581 - 5 x641 <= 0
 c142: 4 x42 + 4 x102 + 4 x162 + 4 x222 + 4 x282 + 4 x342 + 4 x402 + 4 x462
       + 4 x522 + 4 x582 - 5 x642 <= 0
 c143: 4 x43 + 4 x103 + 4 x163 + 4 x223 + 4 x283 + 4 x343 + 4 x403 + 4 x463
       + 4 x523 + 4 x583 - 5 x643 <= 0
 c144: 4 x44 + 4 x104 + 4 x164 + 4 x224 + 4 x284 + 4 x344 + 4 x404 + 4 x464
       + 4 x524 + 4 x584 - 5 x644 <= 0
 c145: 4 x45 + 4 x105 + 4 x165 + 4 x225 + 4 x285 + 4 x345 + 4 x405 + 4 x465
       + 4 x525 + 4 x585 - 5 x645 <= 0
 c146: 4 x46 + 4 x106 + 4 x166 + 4 x226 + 4 x286 + 4 x346 + 4 x406 + 4 x466
       + 4 x526 + 4 x586 - 5 x646 <= 0
 c147: 4 x47 + 4 x107 + 4 x167 + 4 x227 + 4 x287 + 4 x347 + 4 x407 + 4 x467
       + 4 x527 + 4 x587 - 5 x647 <= 0
 c148: 4 x48 + 4 x108 + 4 x168 + 4 x228 + 4 x288 + 4 x348 + 4 x408 + 4 x468
       + 4 x528 + 4 x588 - 5 x648 <= 0
 c149: 4 x49 + 4 x109 + 4 x169 + 4 x229 + 4 x289 + 4 x349 + 4 x409 + 4 x469
       + 4 x529 + 4 x589 - 5 x649 <= 0
 c150: 4 x50 + 4 x110 + 4 x170 + 4 x230 + 4 x290 + 4 x350 + 4 x410 + 4 x470
       + 4 x530 + 4 x590 - 5 x650 <= 0
 c151: 4 x51 + 4 x111 + 4 x171 + 4 x231 + 4 x291 + 4 x351 + 4 x411 + 4 x471
       + 4 x531 + 4 x591 - 5 x651 <= 0
 c152: 4 x52 + 4 x112 + 4 x172 + 4 x232 + 4 x292 + 4 x352 + 4 x412 + 4 x472
       + 4 x532 + 4 x592 - 5 x652 <= 0
 c153: 4 x53 + 4 x113 + 4 x173 + 4 x233 + 4 x293 + 4 x353 + 4 x413 + 4 x473
       + 4 x533 + 4 x593 - 5 x653 <= 0
 c154: 4 x54 + 4 x114 + 4 x174 + 4 x234 + 4 x294 + 4 x354 + 4 x414 + 4 x474
       + 4 x534 + 4 x594 - 5 x654 <= 0
 c155: 4 x55 + 4 x115 + 4 x175 + 4 x235 + 4 x295 + 4 x355 + 4 x415 + 4 x475
       + 4 x535 + 4 x595 - 5 x655 <= 0
 c156: 4 x56 + 4 x116 + 4 x176 + 4 x236 + 4 x296 + 4 x356 + 4 x416 + 4 x476
       + 4 x536 + 4 x596 - 5 x656 <= 0
 c157: 4 x57 + 4 x117 + 4 x177 + 4 x237 + 4 x297 + 4 x357 + 4 x417 + 4 x477
       + 4 x537 + 4 x597 - 5 x657 <= 0
 c158: 4 x58 + 4 x118 + 4 x178 + 4 x238 + 4 x298 + 4 x358 + 4 x418 + 4 x478
       + 4 x538 + 4 x598 - 5 x658 <= 0
 c159: 4 x59 + 4 x119 + 4 x179 + 4 x239 + 4 x299 + 4 x359 + 4 x419 + 4 x479
       + 4 x539 + 4 x599 - 5 x659 <= 0
 c160: 4 x60 + 4 x120 + 4 x180 + 4 x240 + 4 x300 + 4 x360 + 4 x420 + 4 x480
       + 4 x540 + 4 x600 - 5 x660 <= 0
Bounds
 0 <= x1 <= 1
 0 <= x2 <= 1
 0 <= x3 <= 1
 0 <= x4 <= 1
 0 <= x5 <= 1
 0 <= x6 <= 1
 0 <= x7 <= 1
 0 <= x8 <= 1
 0 <= x9 <= 1
 0 <= x10 <= 1
 0 <= x11 <= 1
 0 <= x12 <= 1
 0 <= x13 <= 1
 0 <= x14 <= 1
 0 <= x15 <= 1
 0 <= x16 <= 1
 0 <= x17 <= 1
 0 <= x18 <= 1
 0 <= x19 <= 1
 0 <= x20 <= 1
 0 <= x21 <= 1
 0 <= x22 <= 1
 0 <= x23 <= 1
 0 <= x24 <= 1
 0 <= x25 <= 1
 0 <= x26 <= 1
 0 <= x27 <= 1
 0 <= x28 <= 1
 0 <= x29 <= 1
 0 <= x30 <= 1
 0 <= x31 <= 1
 0 <= x32 <= 1
 0 <= x33 <= 1
 0 <= x34 <= 1
 0 <= x35 <= 1
 0 <= x36 <= 1
 0 <= x37 <= 1
 0 <= x38 <= 1
 0 <= x39 <= 1
 0 <= x40 <= 1
 0 <= x41 <= 1
 0 <= x42 <= 1
 0 <= x43 <= 1
 0 <= x44 <= 1
 0 <= x45 <= 1
 0 <= x46 <= 1
 0 <= x47 <= 1
 0 <= x48 <= 1
 0 <= x49 <= 1
 0 <= x50 <= 1
 0 <= x51 <= 1
 0 <= x52 <= 1
 0 <= x53 <= 1
 0 <= x54 <= 1
 0 <= x55 <= 1
 0 <= x56 <= 1
 0 <= x57 <= 1
 0 <= x58 <= 1
 0 <= x59 <= 1
 0 <= x60 <= 1
 0 <= x61 <= 1
 0 <= x62 <= 1
 0 <= x63 <= 1
 0 <= x64 <= 1
 0 <= x65 <= 1
 0 <= x66 <= 1
 0 <= x67 <= 1
 0 <= x68 <= 1
 0 <= x69 <= 1
 0 <= x70 <= 1
 0 <= x71 <= 1
 0 <= x72 <= 1
 0 <= x73 <= 1
 0 <= x74 <= 1
 0 <= x75 <= 1
 0 <= x76 <= 1
 0 <= x77 <= 1
 0 <= x78 <= 1
 0 <= x79 <= 1
 0 <= x80 <= 1
 0 <= x81 <= 1
 0 <= x82 <= 1
 0 <= x83 <= 1
 0 <= x84 <= 1
 0 <= x85 <= 1
 0 <= x86 <= 1
 0 <= x87 <= 1
 0 <= x88 <= 1
 0 <= x89 <= 1
 0 <= x90 <= 1
 0 <= x91 <= 1
 0 <= x92 <= 1
 0 <= x93 <= 1
 0 <= x94 <= 1
 0 <= x95 <= 1
 0 <= x96 <= 1
 0 <= x97 <= 1
 0 <= x98 <= 1
 0 <= x99 <= 1
 0 <= x100 <= 1
 0 <= x101 <= 1
 0 <= x102 <= 1
 0 <= x103 <= 1
 0 <= x104 <= 1
 0 <= x105 <= 1
 0 <= x106 <= 1
 0 <= x107 <= 1
 0 <= x108 <= 1
 0 <= x109 <= 1
 0 <= x110 <= 1
 0 <= x111 <= 1
 0 <= x112 <= 1
 0 <= x113 <= 1
 0 <= x114 <= 1
 0 <= x115 <= 1
 0 <= x116 <= 1
 0 <= x117 <= 1
 0 <= x118 <= 1
 0 <= x119 <= 1
 0 <= x120 <= 1
 0 <= x121 <= 1
 0 <= x122 <= 1
 0 <= x123 <= 1
 0 <= x124 <= 1
 0 <= x125 <= 1
 0 <= x126 <= 1
 0 <= x127 <= 1
 0 <= x128 <= 1
 0 <= x129 <= 1
 0 <= x130 <= 1
 0 <= x131 <= 1
 0 <= x132 <= 1
 0 <= x133 <= 1
 0 <= x134 <= 1
 0 <= x135 <= 1
 0 <= x136 <= 1
 0 <= x137 <= 1
 0 <= x138 <= 1
 0 <= x139 <= 1
 0 <= x140 <= 1
 0 <= x141 <= 1
 0 <= x142 <= 1
 0 <= x143 <= 1
 0 <= x144 <= 1
 0 <= x145 <= 1
 0 <= x146 <= 1
 0 <= x147 <= 1
 0 <= x148 <= 1
 0 <= x149 <= 1
 0 <= x150 <= 1
 0 <= x151 <= 1
 0 <= x152 <= 1
 0 <= x153 <= 1
 0 <= x154 <= 1
 0 <= x155 <= 1
 0 <= x156 <= 1
 0 <= x157 <= 1
 0 <= x158 <= 1
 0 <= x159 <= 1
 0 <= x160 <= 1
 0 <= x161 <= 1
 0 <= x162 <= 1
 0 <= x163 <= 1
 0 <= x164 <= 1
 0 <= x165 <= 1
 0 <= x166 <= 1
 0 <= x167 <= 1
 0 <= x168 <= 1
 0 <= x169 <= 1
 0 <= x170 <= 1
 0 <= x171 <= 1
 0 <= x172 <= 1
 0 <= x173 <= 1
 0 <= x174 <= 1
 0 <= x175 <= 1
 0 <= x176 <= 1
 0 <= x177 <= 1
 0 <= x178 <= 1
 0 <= x179 <= 1
 0 <= x180 <= 1
 0 <= x181 <= 1
 0 <= x182 <= 1
 0 <= x183 <= 1
 0 <= x184 <= 1
 0 <= x185 <= 1
 0 <= x186 <= 1
 0 <= x187 <= 1
 0 <= x188 <= 1
 0 <= x189 <= 1
 0 <= x190 <= 1
 0 <= x191 <= 1
 0 <= x192 <= 1
 0 <= x193 <= 1
 0 <= x194 <= 1
 0 <= x195 <= 1
 0 <= x196 <= 1
 0 <= x197 <= 1
 0 <= x198 <= 1
 0 <= x199 <= 1
 0 <= x200 <= 1
 0 <= x201 <= 1
 0 <= x202 <= 1
 0 <= x203 <= 1
 0 <= x204 <= 1
 0 <= x205 <= 1
 0 <= x206 <= 1
 0 <= x207 <= 1
 0 <= x208 <= 1
 0 <= x209 <= 1
 0 <= x210 <= 1
 0 <= x211 <= 1
 0 <= x212 <= 1
 0 <= x213 <= 1
 0 <= x214 <= 1
 0 <= x215 <= 1
 0 <= x216 <= 1
 0 <= x217 <= 1
 0 <= x218 <= 1
 0 <= x219 <= 1
 0 <= x220 <= 1
 0 <= x221 <= 1
 0 <= x222 <= 1
 0 <= x223 <= 1
 0 <= x224 <= 1
 0 <= x225 <= 1
 0 <= x226 <= 1
 0 <= x227 <= 1
 0 <= x228 <= 1
 0 <= x229 <= 1
 0 <= x230 <= 1
 0 <= x231 <= 1
 0 <= x232 <= 1
 0 <= x233 <= 1
 0 <= x234 <= 1
 0 <= x235 <= 1
 0 <= x236 <= 1
 0 <= x237 <= 1
 0 <= x238 <= 1
 0 <= x239 <= 1
 0 <= x240 <= 1
 0 <= x241 <= 1
 0 <= x242 <= 1
 0 <= x243 <= 1
 0 <= x244 <= 1
 0 <= x245 <= 1
 0 <= x246 <= 1
 0 <= x247 <= 1
 0 <= x248 <= 1
 0 <= x249 <= 1
 0 <= x250 <= 1
 0 <= x251 <= 1
 0 <= x252 <= 1
 0 <= x253 <= 1
 0 <= x254 <= 1
 0 <= x255 <= 1
 0 <= x256 <= 1
 0 <= x257 <= 1
 0 <= x258 <= 1
 0 <= x259 <= 1
 0 <= x260 <= 1
 0 <= x261 <= 1
 0 <= x262 <= 1
 0 <= x263 <= 1
 0 <= x264 <= 1
 0 <= x265 <= 1
 0 <= x266 <= 1
 0 <= x267 <= 1
 0 <= x268 <= 1
 0 <= x269 <= 1
 0 <= x270 <= 1
 0 <= x271 <= 1
 0 <= x272 <= 1
 0 <= x273 <= 1
 0 <= x274 <= 1
 0 <= x275 <= 1
 0 <= x276 <= 1
 0 <= x277 <= 1
 0 <= x278 <= 1
 0 <= x279 <= 1
 0 <= x280 <= 1
 0 <= x281 <= 1
 0 <= x282 <= 1
 0 <= x283 <= 1
 0 <= x284 <= 1
 0 <= x285 <= 1
 0 <= x286 <= 1
 0 <= x287 <= 1
 0 <= x288 <= 1
 0 <= x289 <= 1
 0 <= x290 <= 1
 0 <= x291 <= 1
 0 <= x292 <= 1
 0 <= x293 <= 1
 0 <= x294 <= 1
 0 <= x295 <= 1
 0 <= x296 <= 1
 0 <= x297 <= 1
 0 <= x298 <= 1
 0 <= x299 <= 1
 0 <= x300 <= 1
 0 <= x301 <= 1
 0 <= x302 <= 1
 0 <= x303 <= 1
 0 <= x304 <= 1
 0 <= x305 <= 1
 0 <= x306 <= 1
 0 <= x307 <= 1
 0 <= x308 <= 1
 0 <= x309 <= 1
 0 <= x310 <= 1
 0 <= x311 <= 1
 0 <= x312 <= 1
 0 <= x313 <= 1
 0 <= x314 <= 1
 0 <= x315 <= 1
 0 <= x316 <= 1
 0 <= x317 <= 1
 0 <= x318 <= 1
 0 <= x319 <= 1
 0 <= x320 <= 1
 0 <= x321 <= 1
 0 <= x322 <= 1
 0 <= x323 <= 1
 0 <= x324 <= 1
 0 <= x325 <= 1
 0 <= x326 <= 1
 0 <= x327 <= 1
 0 <= x328 <= 1
 0 <= x329 <= 1
 0 <= x330 <= 1
 0 <= x331 <= 1
 0 <= x332 <= 1
 0 <= x333 <= 1
 0 <= x334 <= 1
 0 <= x335 <= 1
 0 <= x336 <= 1
 0 <= x337 <= 1
 0 <= x338 <= 1
 0 <= x339 <= 1
 0 <= x340 <= 1
 0 <= x341 <= 1
 0 <= x342 <= 1
 0 <= x343 <= 1
 0 <= x344 <= 1
 0 <= x345 <= 1
 0 <= x346 <= 1
 0 <= x347 <= 1
 0 <= x348 <= 1
 0 <= x349 <= 1
 0 <= x350 <= 1
 0 <= x351 <= 1
 0 <= x352 <= 1
 0 <= x353 <= 1
 0 <= x354 <= 1
 0 <= x355 <= 1
 0 <= x356 <= 1
 0 <= x357 <= 1
 0 <= x358 <= 1
 0 <= x359 <= 1
 0 <= x360 <= 1
 0 <= x361 <= 1
 0 <= x362 <= 1
 0 <= x363 <= 1
 0 <= x364 <= 1
 0 <= x365 <= 1
 0 <= x366 <= 1
 0 <= x367 <= 1
 0 <= x368 <= 1
 0 <= x369 <= 1
 0 <= x370 <= 1
 0 <= x371 <= 1
 0 <= x372 <= 1
 0 <= x373 <= 1
 0 <= x374 <= 1
 0 <= x375 <= 1
 0 <= x376 <= 1
 0 <= x377 <= 1
 0 <= x378 <= 1
 0 <= x379 <= 1
 0 <= x380 <= 1
 0 <= x381 <= 1
 0 <= x382 <= 1
 0 <= x383 <= 1
 0 <= x384 <= 1
 0 <= x385 <= 1
 0 <= x386 <= 1
 0 <= x387 <= 1
 0 <= x388 <= 1
 0 <= x389 <= 1
 0 <= x390 <= 1
 0 <= x391 <= 1
 0 <= x392 <= 1
 0 <= x393 <= 1
 0 <= x394 <= 1
 0 <= x395 <= 1
 0 <= x396 <= 1
 0 <= x397 <= 1
 0 <= x398 <= 1
 0 <= x399 <= 1
 0 <= x400 <= 1
 0 <= x401 <= 1
 0 <= x402 <= 1
 0 <= x403 <= 1
 0 <= x404 <= 1
 0 <= x405 <= 1
 0 <= x406 <= 1
 0 <= x407 <= 1
 0 <= x408 <= 1
 0 <= x409 <= 1
 0 <= x410 <= 1
 0 <= x411 <= 1
 0 <= x412 <= 1
 0 <= x413 <= 1
 0 <= x414 <= 1
 0 <= x415 <= 1
 0 <= x416 <= 1
 0 <= x417 <= 1
 0 <= x418 <= 1
 0 <= x419 <= 1
 0 <= x420 <= 1
 0 <= x421 <= 1
 0 <= x422 <= 1
 0 <= x423 <= 1
 0 <= x424 <= 1
 0 <= x425 <= 1
 0 <= x426 <= 1
 0 <= x427 <= 1
 0 <= x428 <= 1
 0 <= x429 <= 1
 0 <= x430 <= 1
 0 <= x431 <= 1
 0 <= x432 <= 1
 0 <= x433 <= 1
 0 <= x434 <= 1
 0 <= x435 <= 1
 0 <= x436 <= 1
 0 <= x437 <= 1
 0 <= x438 <= 1
 0 <= x439 <= 1
 0 <= x440 <= 1
 0 <= x441 <= 1
 0 <= x442 <= 1
 0 <= x443 <= 1
 0 <= x444 <= 1
 0 <= x445 <= 1
 0 <= x446 <= 1
 0 <= x447 <= 1
 0 <= x448 <= 1
 0 <= x449 <= 1
 0 <= x450 <= 1
 0 <= x451 <= 1
 0 <= x452 <= 1
 0 <= x453 <= 1
 0 <= x454 <= 1
 0 <= x455 <= 1
 0 <= x456 <= 1
 0 <= x457 <= 1
 0 <= x458 <= 1
 0 <= x459 <= 1
 0 <= x460 <= 1
 0 <= x461 <= 1
 0 <= x462 <= 1
 0 <= x463 <= 1
 0 <= x464 <= 1
 0 <= x465 <= 1
 0 <= x466 <= 1
 0 <= x467 <= 1
 0 <= x468 <= 1
 0 <= x469 <= 1
 0 <= x470 <= 1
 0 <= x471 <= 1
 0 <= x472 <= 1
 0 <= x473 <= 1
 0 <= x474 <= 1
 0 <= x475 <= 1
 0 <= x476 <= 1
 0 <= x477 <= 1
 0 <= x478 <= 1
 0 <= x479 <= 1
 0 <= x480 <= 1
 0 <= x481 <= 1
 0 <= x482 <= 1
 0 <= x483 <= 1
 0 <= x484 <= 1
 0 <= x485 <= 1
 0 <= x486 <= 1
 0 <= x487 <= 1
 0 <= x488 <= 1
 0 <= x489 <= 1
 0 <= x490 <= 1
 0 <= x491 <= 1
 0 <= x492 <= 1
 0 <= x493 <= 1
 0 <= x494 <= 1
 0 <= x495 <= 1
 0 <= x496 <= 1
 0 <= x497 <= 1
 0 <= x498 <= 1
 0 <= x499 <= 1
 0 <= x500 <= 1
 0 <= x501 <= 1
 0 <= x502 <= 1
 0 <= x503 <= 1
 0 <= x504 <= 1
 0 <= x505 <= 1
 0 <= x506 <= 1
 0 <= x507 <= 1
 0 <= x508 <= 1
 0 <= x509 <= 1
 0 <= x510 <= 1
 0 <= x511 <= 1
 0 <= x512 <= 1
 0 <= x513 <= 1
 0 <= x514 <= 1
 0 <= x515 <= 1
 0 <= x516 <= 1
 0 <= x517 <= 1
 0 <= x518 <= 1
 0 <= x519 <= 1
 0 <= x520 <= 1
 0 <= x521 <= 1
 0 <= x522 <= 1
 0 <= x523 <= 1
 0 <= x524 <= 1
 0 <= x525 <= 1
 0 <= x526 <= 1
 0 <= x527 <= 1
 0 <= x528 <= 1
 0 <= x529 <= 1
 0 <= x530 <= 1
 0 <= x531 <= 1
 0 <= x532 <= 1
 0 <= x533 <= 1
 0 <= x534 <= 1
 0 <= x535 <= 1
 0 <= x536 <= 1
 0 <= x537 <= 1
 0 <= x538 <= 1
 0 <= x539 <= 1
 0 <= x540 <= 1
 0 <= x541 <= 1
 0 <= x542 <= 1
 0 <= x543 <= 1
 0 <= x544 <= 1
 0 <= x545 <= 1
 0 <= x546 <= 1
 0 <= x547 <= 1
 0 <= x548 <= 1
 0 <= x549 <= 1
 0 <= x550 <= 1
 0 <= x551 <= 1
 0 <= x552 <= 1
 0 <= x553 <= 1
 0 <= x554 <= 1
 0 <= x555 <= 1
 0 <= x556 <= 1
 0 <= x557 <= 1
 0 <= x558 <= 1
 0 <= x559 <= 1
 0 <= x560 <= 1
 0 <= x561 <= 1
 0 <= x562 <= 1
 0 <= x563 <= 1
 0 <= x564 <= 1
 0 <= x565 <= 1
 0 <= x566 <= 1
 0 <= x567 <= 1
 0 <= x568 <= 1
 0 <= x569 <= 1
 0 <= x570 <= 1
 0 <= x571 <= 1
 0 <= x572 <= 1
 0 <= x573 <= 1
 0 <= x574 <= 1
 0 <= x575 <= 1
 0 <= x576 <= 1
 0 <= x577 <= 1
 0 <= x578 <= 1
 0 <= x579 <= 1
 0 <= x580 <= 1
 0 <= x581 <= 1
 0 <= x582 <= 1
 0 <= x583 <= 1
 0 <= x584 <= 1
 0 <= x585 <= 1
 0 <= x586 <= 1
 0 <= x587 <= 1
 0 <= x588 <= 1
 0 <= x589 <= 1
 0 <= x590 <= 1
 0 <= x591 <= 1
 0 <= x592 <= 1
 0 <= x593 <= 1
 0 <= x594 <= 1
 0 <= x595 <= 1
 0 <= x596 <= 1
 0 <= x597 <= 1
 0 <= x598 <= 1
 0 <= x599 <= 1
 0 <= x600 <= 1
 0 <= x601 <= 1
 0 <= x602 <= 1
 0 <= x603 <= 1
 0 <= x604 <= 1
 0 <= x605 <= 1
 0 <= x606 <= 1
 0 <= x607 <= 1
 0 <= x608 <= 1
 0 <= x609 <= 1
 0 <= x610 <= 1
 0 <= x611 <= 1
 0 <= x612 <= 1
 0 <= x613 <= 1
 0 <= x614 <= 1
 0 <= x615 <= 1
 0 <= x616 <= 1
 0 <= x617 <= 1
 0 <= x618 <= 1
 0 <= x619 <= 1
 0 <= x620 <= 1
 0 <= x621 <= 1
 0 <= x622 <= 1
 0 <= x623 <= 1
 0 <= x624 <= 1
 0 <= x625 <= 1
 0 <= x626 <= 1
 0 <= x627 <= 1
 0 <= x628 <= 1
 0 <= x629 <= 1
 0 <= x630 <= 1
 0 <= x631 <= 1
 0 <= x632 <= 1
 0 <= x633 <= 1
 0 <= x634 <= 1
 0 <= x635 <= 1
 0 <= x636 <= 1
 0 <= x637 <= 1
 0 <= x638 <= 1
 0 <= x639 <= 1
 0 <= x640 <= 1
 0 <= x641 <= 1
 0 <= x642 <= 1
 0 <= x643 <= 1
 0 <= x644 <= 1
 0 <= x645 <= 1
 0 <= x646 <= 1
 0 <= x647 <= 1
 0 <= x648 <= 1
 0 <= x649 <= 1
 0 <= x650 <= 1
 0 <= x651 <= 1
 0 <= x652 <= 1
 0 <= x653 <= 1
 0 <= x654 <= 1
 0 <= x655 <= 1
 0 <= x656 <= 1
 0 <= x657 <= 1
 0 <= x658 <= 1
 0 <= x659 <= 1
 0 <= x660 <= 1
Binaries
 x601  x602  x603  x604  x605  x606  x607  x608  x609  x610  x611  x612  x613 
 x614  x615  x616  x617  x618  x619  x620  x621  x622  x623  x624  x625  x626 
 x627  x628  x629  x630  x631  x632  x633  x634  x635  x636  x637  x638  x639 
 x640  x641  x642  x643  x644  x645  x646  x647  x648  x649  x650  x651  x652 
 x653  x654  x655  x656  x657  x658  x659  x660 
End
